Solving original (integer) problem with strategy gdp.bigm...
--- Job model.gms Start 02/15/26 00:59:56 52.2.0 d8e408be LEX-LEG x86 64bit/Linux
--- Applying:
    /package/gams/52.2/gmsprmun.txt
--- GAMS Parameters defined
    Input /local/scratch/a/sgusev/repos/k_means/data/gams_gurobi_gdp.bigm/no_mode/2026-02-15_00-59-56/original/model.gms
    Output /local/scratch/a/sgusev/repos/k_means/data/gams_gurobi_gdp.bigm/no_mode/2026-02-15_00-59-56/original/output.lst
    ScrDir /local/scratch/a/sgusev/repos/k_means/data/gams_gurobi_gdp.bigm/no_mode/2026-02-15_00-59-56/original/225a/
    SysDir /package/gams/52.2/
    CurDir /local/scratch/a/sgusev/repos/k_means/data/gams_gurobi_gdp.bigm/no_mode/2026-02-15_00-59-56/original/
    LogOption 3
    AppendLog 1
Licensee: David Bernal / SECQUOIA Research Group         G251008+0003Ac-GEN
          Purdue University, Davidson School of Chemical EngineeringDCE4838
          225a/gamslice.dat
          5a82958a-fbca-4a23
          node:66820903 mem:995 cores:48 ipport:60183 v:2                  
          Evaluation license: Not for commercial or production use
          The time-limited license stops working on : Jun 30, 2027
System information: 48 physical cores and 995 Gb physical memory detected
GAMS 52.2.0   Copyright (C) 1987-2025 GAMS Development. All rights reserved
--- Starting compilation
--- model.gms(325) 2 Mb
--- $echo File /local/scratch/a/sgusev/repos/k_means/data/gams_gurobi_gdp.bigm/no_mode/2026-02-15_00-59-56/original/gurobi.opt
--- model.gms(562) 2 Mb
--- Starting execution: elapsed 0:00:00.007
--- model.gms(334) 3 Mb
--- Generating MINLP model GAMS_MODEL
--- model.gms(338) 5 Mb
---   79 rows  92 columns  442 non-zeroes
---   1,020 nl-code  240 nl-non-zeroes
---   60 discrete-columns
--- Range statistics (absolute non-zero finite values)
--- RHS       [min, max] : [ 1.000E+00, 1.116E+01] - Zero values observed as well
--- Bound     [min, max] : [ 1.000E+00, 1.200E+02] - Zero values observed as well
--- Matrix    [min, max] : [ 4.003E-02, 1.116E+01]
--- model.gms(338) 3 Mb
--- Executing GUROBI (Solvelink=5): elapsed 0:00:00.013
Reading parameter(s) from "/local/scratch/a/sgusev/repos/k_means/data/gams_gurobi_gdp.bigm/no_mode/2026-02-15_00-59-56/original/gurobi.opt"
>>  NonConvex 2
>>  Threads 1
>>  MIPGap 1e-06
>>  MIPGapAbs 1e-10
>>  FeasibilityTol 1e-06
>>  OptimalityTol 1e-06
>>  IntFeasTol 1e-05
Finished reading from "/local/scratch/a/sgusev/repos/k_means/data/gams_gurobi_gdp.bigm/no_mode/2026-02-15_00-59-56/original/gurobi.opt"

... GRB_LICENSE_FILE = /local/scratch/a/sgusev/gurobi.lic

    Gurobi           52.2.0 d8e408be Dec 8, 2025           LEG x86 64bit/Linux    

... GAMS/Gurobi Link license.
... GMO Q Extraction (ThreePass): 0.00s

    Gurobi Optimizer version 13.0.0 build v13.0.0rc1 (linux64 - "Oracle Linux Server 9.7")
    
    CPU model: AMD EPYC 7643 48-Core Processor, instruction set [SSE2|AVX|AVX2]
    Thread count: 48 physical cores, 96 logical processors, using up to 1 threads
    
    Non-default parameters:
    TimeLimit  300
    MIPGap  1e-06
    LogToConsole  0
    NonConvex  2
    Threads  1
    
    Optimize a model with 18 rows, 91 columns and 66 nonzeros (Min)
    Model fingerprint: 0x3be6862c
    Model has 15 linear objective coefficients
    Model has 60 quadratic constraints
    Variable types: 31 continuous, 60 integer (0 binary)
    Coefficient statistics:
      Matrix range     [1e+00, 1e+00]
      QMatrix range    [1e+00, 1e+00]
      QLMatrix range   [4e-02, 1e+01]
      Objective range  [1e+00, 1e+00]
      Bounds range     [1e+00, 1e+02]
      RHS range        [1e+00, 1e+00]
      QRHS range       [6e+00, 9e+00]
    Presolve added 60 rows and 4 columns
    Presolve time: 0.00s
    Presolved: 78 rows, 95 columns, 486 nonzeros
    Presolved model has 4 quadratic constraint(s)
    Variable types: 35 continuous, 60 integer (60 binary)
    
    Root relaxation: objective 0.000000e+00, 30 iterations, 0.00 seconds (0.00 work units)
    
        Nodes    |    Current Node    |     Objective Bounds      |     Work
     Expl Unexpl |  Obj  Depth IntInf | Incumbent    BestBd   Gap | It/Node Time
    
    H    0     0                      10.8711364    0.00000   100%     -    0s
    *    0     0               0      10.8711364    0.00000   100%     -    0s
         0     0    0.00000    0   14   10.87114    0.00000   100%     -    0s
    H    0     0                       9.8333234    0.00000   100%     -    0s
    *    0     0               0       9.8333234    0.00000   100%     -    0s
         0     0    0.00000    0   20    9.83332    0.00000   100%     -    0s
         0     0    0.00000    0   31    9.83332    0.00000   100%     -    0s
         0     0    0.00000    0   30    9.83332    0.00000   100%     -    0s
         0     0    0.00000    0   24    9.83332    0.00000   100%     -    0s
    H    0     0                       9.2731292    0.00000   100%     -    0s
    *    0     0               0       9.2731292    0.00000   100%     -    0s
         0     0    0.00000    0   14    9.27313    0.00000   100%     -    0s
         0     0    0.00000    0   21    9.27313    0.00000   100%     -    0s
    H    0     0                       7.9398499    0.00000   100%     -    0s
    *    0     0               0       7.9398499    0.00000   100%     -    0s
         0     0    0.00000    0    8    7.93985    0.00000   100%     -    0s
         0     0    0.00000    0   18    7.93985    0.00000   100%     -    0s
         0     0    0.00000    0    4    7.93985    0.00000   100%     -    0s
    H    0     0                       7.9398499    0.00000   100%     -    0s
         0     0    0.00000    0   18    7.93985    0.00000   100%     -    0s
         0     0    0.00000    0   18    7.93985    0.00000   100%     -    0s
         0     0    0.00000    0    4    7.93985    0.00000   100%     -    0s
         0     0    0.00000    0   24    7.93985    0.00000   100%     -    0s
         0     0    0.00000    0    6    7.93985    0.00000   100%     -    0s
         0     0    0.00000    0   16    7.93985    0.00000   100%     -    0s
         0     0    0.00000    0   16    7.93985    0.00000   100%     -    0s
         0     0    0.00000    0   28    7.93985    0.00000   100%     -    0s
         0     0    0.00000    0    8    7.93985    0.00000   100%     -    0s
         0     0    0.00000    0   20    7.93985    0.00000   100%     -    0s
         0     0    0.00000    0   12    7.93985    0.00000   100%     -    0s
         0     0    0.00000    0   18    7.93985    0.00000   100%     -    0s
         0     0    0.00000    0    5    7.93985    0.00000   100%     -    0s
         0     0    0.00000    0   17    7.93985    0.00000   100%     -    0s
         0     0    0.00000    0   12    7.93985    0.00000   100%     -    0s
         0     0    0.00000    0   22    7.93985    0.00000   100%     -    0s
         0     0    0.00000    0    8    7.93985    0.00000   100%     -    0s
         0     0    0.00000    0   16    7.93985    0.00000   100%     -    0s
         0     0    0.00000    0    6    7.93985    0.00000   100%     -    0s
         0     0    0.00000    0   14    7.93985    0.00000   100%     -    0s
         0     0    0.00000    0   12    7.93985    0.00000   100%     -    0s
         0     0    0.00000    0   16    7.93985    0.00000   100%     -    0s
         0     0    0.00000    0    2    7.93985    0.00000   100%     -    0s
         0     0    0.00000    0   17    7.93985    0.00000   100%     -    0s
         0     0    0.00000    0   17    7.93985    0.00000   100%     -    0s
         0     0    0.00000    0   24    7.93985    0.00000   100%     -    0s
         0     0    0.00000    0    8    7.93985    0.00000   100%     -    0s
         0     0    0.00000    0   22    7.93985    0.00000   100%     -    0s
         0     0    0.00000    0    8    7.93985    0.00000   100%     -    0s
         0     0    0.00000    0   20    7.93985    0.00000   100%     -    0s
         0     0    0.00000    0    8    7.93985    0.00000   100%     -    0s
         0     0    0.00000    0   14    7.93985    0.00000   100%     -    0s
         0     0    0.00000    0   14    7.93985    0.00000   100%     -    0s
         0     0    0.00000    0   20    7.93985    0.00000   100%     -    0s
         0     0    0.00000    0   12    7.93985    0.00000   100%     -    0s
         0     0    0.00000    0   19    7.93985    0.00000   100%     -    0s
         0     0    0.00000    0   10    7.93985    0.00000   100%     -    0s
         0     0    0.00000    0   16    7.93985    0.00000   100%     -    0s
         0     0    0.00000    0   14    7.93985    0.00000   100%     -    0s
         0     0    0.00000    0   22    7.93985    0.00000   100%     -    0s
         0     0    0.00000    0   10    7.93985    0.00000   100%     -    0s
         0     0    0.00000    0   16    7.93985    0.00000   100%     -    0s
         0     0    0.00000    0   16    7.93985    0.00000   100%     -    0s
         0     0    0.00000    0   18    7.93985    0.00000   100%     -    0s
         0     0    0.00000    0   16    7.93985    0.00000   100%     -    0s
         0     0    0.00000    0   20    7.93985    0.00000   100%     -    0s
         0     0    0.00000    0   20    7.93985    0.00000   100%     -    0s
         0     0    0.00000    0   21    7.93985    0.00000   100%     -    0s
         0     0    0.00000    0   10    7.93985    0.00000   100%     -    0s
         0     0    0.00000    0   20    7.93985    0.00000   100%     -    0s
         0     0    0.00000    0    4    7.93985    0.00000   100%     -    0s
         0     0    0.00000    0   18    7.93985    0.00000   100%     -    0s
         0     0    0.00000    0   18    7.93985    0.00000   100%     -    0s
         0     0    0.00000    0   24    7.93985    0.00000   100%     -    0s
         0     0    0.00000    0    6    7.93985    0.00000   100%     -    0s
         0     0    0.00000    0   16    7.93985    0.00000   100%     -    0s
         0     0    0.00000    0   12    7.93985    0.00000   100%     -    0s
         0     0    0.00000    0   14    7.93985    0.00000   100%     -    0s
         0     0    0.00000    0   14    7.93985    0.00000   100%     -    0s
         0     0    0.00000    0   22    7.93985    0.00000   100%     -    0s
         0     0    0.00000    0   18    7.93985    0.00000   100%     -    0s
         0     0    0.00000    0   18    7.93985    0.00000   100%     -    0s
         0     0    0.00000    0    4    7.93985    0.00000   100%     -    0s
         0     0    0.00000    0   16    7.93985    0.00000   100%     -    0s
         0     0    0.00000    0    6    7.93985    0.00000   100%     -    0s
         0     0    0.00000    0   20    7.93985    0.00000   100%     -    0s
         0     0    0.00000    0    4    7.93985    0.00000   100%     -    0s
         0     0    0.00000    0   16    7.93985    0.00000   100%     -    0s
         0     0    0.00000    0   14    7.93985    0.00000   100%     -    0s
         0     0    0.00000    0   16    7.93985    0.00000   100%     -    0s
         0     0    0.00000    0    8    7.93985    0.00000   100%     -    0s
         0     0    0.00000    0   20    7.93985    0.00000   100%     -    0s
         0     0    0.00000    0   18    7.93985    0.00000   100%     -    0s
         0     0    0.00000    0   26    7.93985    0.00000   100%     -    0s
         0     0    0.00000    0   10    7.93985    0.00000   100%     -    0s
         0     0    0.00000    0   20    7.93985    0.00000   100%     -    0s
         0     0    0.00000    0   10    7.93985    0.00000   100%     -    0s
         0     0    0.00000    0   16    7.93985    0.00000   100%     -    0s
         0     0    0.00000    0    8    7.93985    0.00000   100%     -    0s
         0     0    0.00000    0   22    7.93985    0.00000   100%     -    0s
         0     0    0.00000    0    4    7.93985    0.00000   100%     -    0s
         0     0    0.00000    0   22    7.93985    0.00000   100%     -    0s
         0     0    0.00000    0    6    7.93985    0.00000   100%     -    0s
         0     0    0.00000    0   22    7.93985    0.00000   100%     -    0s
         0     0    0.00000    0   18    7.93985    0.00000   100%     -    0s
         0     0    0.00000    0   20    7.93985    0.00000   100%     -    0s
         0     0    0.00000    0    4    7.93985    0.00000   100%     -    0s
         0     0    0.00000    0   18    7.93985    0.00000   100%     -    0s
         0     0    0.00000    0   16    7.93985    0.00000   100%     -    0s
         0     0    0.00000    0   20    7.93985    0.00000   100%     -    0s
         0     0    0.00000    0   18    7.93985    0.00000   100%     -    0s
         0     0    0.00000    0   20    7.93985    0.00000   100%     -    0s
         0     0    0.00000    0   10    7.93985    0.00000   100%     -    0s
         0     0    0.00000    0   19    7.93985    0.00000   100%     -    0s
         0     0    0.00000    0    4    7.93985    0.00000   100%     -    0s
         0     0    0.00000    0   16    7.93985    0.00000   100%     -    0s
         0     0    0.00000    0   10    7.93985    0.00000   100%     -    0s
         0     0    0.00000    0   20    7.93985    0.00000   100%     -    0s
         0     0    0.00000    0    6    7.93985    0.00000   100%     -    0s
         0     0    0.00000    0   16    7.93985    0.00000   100%     -    0s
         0     0    0.00000    0    2    7.93985    0.00000   100%     -    0s
         0     0    0.00000    0   16    7.93985    0.00000   100%     -    0s
         0     0    0.00000    0   12    7.93985    0.00000   100%     -    0s
         0     0    0.00000    0   24    7.93985    0.00000   100%     -    0s
         0     0    0.00000    0    6    7.93985    0.00000   100%     -    0s
         0     0    0.00000    0   18    7.93985    0.00000   100%     -    0s
         0     0    0.00000    0   12    7.93985    0.00000   100%     -    0s
         0     0    0.00000    0   22    7.93985    0.00000   100%     -    0s
         0     0    0.00000    0   12    7.93985    0.00000   100%     -    0s
         0     0    0.00000    0   16    7.93985    0.00000   100%     -    0s
         0     0    0.00000    0   10    7.93985    0.00000   100%     -    0s
         0     0    0.00000    0   18    7.93985    0.00000   100%     -    0s
         0     0    0.00000    0   12    7.93985    0.00000   100%     -    0s
         0     0    0.00000    0   16    7.93985    0.00000   100%     -    0s
         0     0    0.00000    0   14    7.93985    0.00000   100%     -    0s
         0     0    0.00000    0   18    7.93985    0.00000   100%     -    0s
         0     0    0.00000    0   12    7.93985    0.00000   100%     -    0s
         0     0    0.00000    0   18    7.93985    0.00000   100%     -    0s
         0     0    0.00000    0    8    7.93985    0.00000   100%     -    0s
         0     0    0.00000    0   22    7.93985    0.00000   100%     -    0s
         0     0    0.00000    0    8    7.93985    0.00000   100%     -    0s
         0     0    0.00000    0   14    7.93985    0.00000   100%     -    0s
         0     0    0.00000    0   10    7.93985    0.00000   100%     -    0s
         0     0    0.00000    0   22    7.93985    0.00000   100%     -    0s
         0     0    0.00000    0    4    7.93985    0.00000   100%     -    0s
         0     0    0.00000    0   16    7.93985    0.00000   100%     -    0s
         0     0    0.00000    0   14    7.93985    0.00000   100%     -    0s
         0     0    0.00000    0   28    7.93985    0.00000   100%     -    0s
         0     0    0.00000    0   10    7.93985    0.00000   100%     -    0s
         0     0    0.00000    0   18    7.93985    0.00000   100%     -    0s
         0     0    0.00000    0    6    7.93985    0.00000   100%     -    0s
         0     0    0.00000    0   20    7.93985    0.00000   100%     -    0s
         0     0    0.00000    0   10    7.93985    0.00000   100%     -    0s
         0     0    0.00000    0   22    7.93985    0.00000   100%     -    0s
         0     0    0.00000    0    6    7.93985    0.00000   100%     -    0s
         0     0    0.00000    0   20    7.93985    0.00000   100%     -    0s
         0     0    0.00000    0    8    7.93985    0.00000   100%     -    0s
         0     0    0.00000    0   20    7.93985    0.00000   100%     -    0s
         0     0    0.00000    0   18    7.93985    0.00000   100%     -    0s
         0     0    0.00000    0   22    7.93985    0.00000   100%     -    0s
         0     0    0.00000    0    6    7.93985    0.00000   100%     -    0s
         0     0    0.00000    0   22    7.93985    0.00000   100%     -    0s
         0     0    0.00000    0   22    7.93985    0.00000   100%     -    0s
         0     0    0.00000    0   26    7.93985    0.00000   100%     -    0s
         0     0    0.00000    0   14    7.93985    0.00000   100%     -    0s
         0     0    0.00000    0   20    7.93985    0.00000   100%     -    0s
         0     0    0.00000    0   20    7.93985    0.00000   100%     -    0s
         0     0    0.00000    0   24    7.93985    0.00000   100%     -    0s
         0     0    0.00000    0    6    7.93985    0.00000   100%     -    0s
         0     0    0.00000    0   20    7.93985    0.00000   100%     -    0s
         0     0    0.00000    0   18    7.93985    0.00000   100%     -    0s
         0     0    0.00000    0   20    7.93985    0.00000   100%     -    0s
         0     0    0.00000    0    6    7.93985    0.00000   100%     -    0s
         0     0    0.00000    0   22    7.93985    0.00000   100%     -    0s
         0     0    0.00000    0   10    7.93985    0.00000   100%     -    0s
         0     0    0.00000    0   14    7.93985    0.00000   100%     -    0s
         0     0    0.00000    0   14    7.93985    0.00000   100%     -    0s
         0     0    0.00000    0   18    7.93985    0.00000   100%     -    0s
         0     0    0.00000    0   12    7.93985    0.00000   100%     -    0s
         0     0    0.00000    0   16    7.93985    0.00000   100%     -    0s
         0     0    0.00000    0   16    7.93985    0.00000   100%     -    0s
         0     0    0.00000    0   20    7.93985    0.00000   100%     -    0s
         0     0    0.00000    0    6    7.93985    0.00000   100%     -    0s
         0     0    0.00000    0   18    7.93985    0.00000   100%     -    0s
         0     0    0.00000    0   18    7.93985    0.00000   100%     -    0s
         0     0    0.00000    0   24    7.93985    0.00000   100%     -    0s
         0     0    0.00000    0    8    7.93985    0.00000   100%     -    0s
         0     0    0.00000    0   16    7.93985    0.00000   100%     -    0s
         0     0    0.00000    0    8    7.93985    0.00000   100%     -    0s
         0     0    0.00000    0   18    7.93985    0.00000   100%     -    0s
         0     0    0.00000    0    6    7.93985    0.00000   100%     -    0s
         0     0    0.00000    0   18    7.93985    0.00000   100%     -    0s
         0     0    0.00000    0   18    7.93985    0.00000   100%     -    0s
         0     0    0.00000    0   20    7.93985    0.00000   100%     -    0s
         0     0    0.00000    0   20    7.93985    0.00000   100%     -    0s
         0     0    0.00000    0   25    7.93985    0.00000   100%     -    0s
         0     0    0.00000    0   14    7.93985    0.00000   100%     -    0s
         0     0    0.00000    0   20    7.93985    0.00000   100%     -    0s
         0     0    0.00000    0    4    7.93985    0.00000   100%     -    0s
         0     0    0.00000    0   14    7.93985    0.00000   100%     -    0s
         0     0    0.00000    0   10    7.93985    0.00000   100%     -    0s
         0     0    0.00000    0   22    7.93985    0.00000   100%     -    0s
         0     0    0.00000    0   10    7.93985    0.00000   100%     -    0s
         0     0    0.00000    0   16    7.93985    0.00000   100%     -    0s
         0     0    0.00000    0   16    7.93985    0.00000   100%     -    0s
         0     0    0.00000    0   25    7.93985    0.00000   100%     -    0s
         0     0    0.00000    0    6    7.93985    0.00000   100%     -    0s
         0     0    0.00000    0   20    7.93985    0.00000   100%     -    0s
         0     0    0.00000    0    6    7.93985    0.00000   100%     -    0s
         0     0    0.00000    0   22    7.93985    0.00000   100%     -    0s
         0     0    0.00000    0    4    7.93985    0.00000   100%     -    0s
         0     0    0.00000    0   16    7.93985    0.00000   100%     -    0s
         0     0    0.00000    0   16    7.93985    0.00000   100%     -    0s
         0     2    0.00000    0    6    7.93985    0.00000   100%     -    0s
    H  104    80                       7.9398499    0.00000   100%   8.0    0s
    H  208   177                       7.9398499    0.00000   100%   7.8    0s
    H  260   220                       7.9398499    0.00000   100%   7.9    0s
    H  400   299                       7.9398499    0.00000   100%  45.7    1s
    H  402   283                       7.9398499    0.00000   100%  45.6    1s
    H  405   269                       7.9398499    0.00000   100%  45.4    1s
    H  731   410                       7.9398499    0.00000   100%  29.0    1s
    H 1044   520                       7.6256893    0.00000   100%  22.4    1s
    H 1044   483                       7.2055854    0.00000   100%  22.4    1s
    H 1069   497                       7.2055854    0.00000   100%  22.1    1s
    H 1076   504                       7.2055853    0.00000   100%  22.1    1s
    H 1083   511                       7.2055853    0.00000   100%  22.0    1s
    H 1094   520                       7.2055853    0.00000   100%  21.8    1s
    H 1113   529                       7.2055853    0.00000   100%  21.6    1s
    H 2305  1312                       7.2055853    0.00000   100%  14.0    2s
    H14686  7806                       6.9351387    0.66228  90.5%   7.8    4s
     20486 10532     cutoff   31         6.93514    0.88996  87.2%   7.6    5s
     50209 23319     cutoff   43         6.93514    1.64537  76.3%   7.1   10s
    H53254 24422                       6.9024812    1.70590  75.3%   7.1   10s
    H59887 26857                       6.9024812    1.82864  73.5%   7.1   11s
    H59887 26857                       6.9024812    1.82864  73.5%   7.1   11s
    H59887 26857                       6.9024812    1.82864  73.5%   7.1   11s
    H59887 26857                       6.9024811    1.82864  73.5%   7.1   11s
    H59887 26857                       6.9024809    1.82864  73.5%   7.1   12s
    H60819 27187                       6.9024809    1.84209  73.3%   7.1   12s
    H61238 27308                       6.9024809    1.84845  73.2%   7.1   12s
    H66108 28937                       6.9024809    1.95039  71.7%   7.1   13s
     75682 32511     cutoff   31         6.90248    2.05199  70.3%   7.1   15s
     102142 41554     cutoff   42         6.90248    2.35941  65.8%   7.0   20s
    H106367 41970                       6.7236040    2.40154  64.3%   7.0   20s
    H106528 42016                       6.7236040    2.40435  64.2%   7.0   20s
    H106841 42117                       6.7236040    2.40820  64.2%   7.0   20s
     127295 48182    3.52348   22   20    6.72360    2.57777  61.7%   7.0   25s
     152750 55204     cutoff   34         6.72360    2.77898  58.7%   7.0   30s
    H158570 56752                       6.7236040    2.81852  58.1%   7.0   31s
     174951 60904    5.58223   34   12    6.72360    2.92888  56.4%   7.0   35s
     200173 67054    5.86365   36   12    6.72360    3.07901  54.2%   7.0   40s
     225571 73148    6.31936   34   12    6.72360    3.20523  52.3%   6.9   45s
     250682 78687     cutoff   38         6.72360    3.32637  50.5%   6.9   50s
     275205 83833     cutoff   38         6.72360    3.43123  49.0%   6.9   55s
    H299171 88620                       6.7236040    3.52896  47.5%   6.9   60s
    H299171 88620                       6.7236039    3.52896  47.5%   6.9   60s
    H299171 88620                       6.7236036    3.52896  47.5%   6.9   60s
    H299171 88620                       6.7236036    3.52896  47.5%   6.9   60s
    H299253 88646                       6.7236036    3.52900  47.5%   6.9   60s
    H299359 88665                       6.7236036    3.52926  47.5%   6.9   60s
    H301211 89027                       6.7236036    3.53781  47.4%   6.9   60s
     322335 92927    6.35045   38   10    6.72360    3.60913  46.3%   6.9   65s
    H336895 95557                       6.7236036    3.65469  45.6%   6.9   67s
     346782 97294    5.61438   28   14    6.72360    3.68875  45.1%   6.9   70s
     371100 101394     cutoff   34         6.72360    3.76482  44.0%   6.9   75s
     392598 104763     cutoff   34         6.72360    3.82952  43.0%   6.9   80s
     416074 108127 infeasible   51         6.72360    3.90049  42.0%   6.9   85s
    H426437 109598                       6.7236036    3.93037  41.5%   6.9   87s
     438928 111223     cutoff   29         6.72360    3.96964  41.0%   6.9   90s
     461963 114116    5.42345   33   12    6.72360    4.03569  40.0%   6.9   95s
    H476742 115924                       6.7236036    4.07512  39.4%   6.9   98s
    H476744 115923                       6.7236036    4.07512  39.4%   6.9   98s
    H476744 115923                       6.7236036    4.07512  39.4%   6.9   98s
     482968 116622    5.90075   40    4    6.72360    4.09155  39.1%   6.9  100s
     505538 119083    6.13866   37    8    6.72360    4.14996  38.3%   6.9  105s
     527832 121173    5.17854   31   14    6.72360    4.20925  37.4%   6.9  110s
     549792 123084    5.66836   37    8    6.72360    4.26830  36.5%   6.9  115s
     571422 124661    4.62932   38   14    6.72360    4.32316  35.7%   6.9  120s
    H585982 125752                       6.7236036    4.35689  35.2%   6.9  123s
    H586825 125817                       6.7236036    4.35936  35.2%   6.9  123s
     590897 126027     cutoff   40         6.72360    4.36946  35.0%   6.9  125s
     612339 127280     cutoff   40         6.72360    4.41921  34.3%   6.9  130s
     633827 128400    5.05889   31   14    6.72360    4.46842  33.5%   6.9  135s
     655254 129272     cutoff   34         6.72360    4.51901  32.8%   6.9  140s
     676496 129868     cutoff   37         6.72360    4.56852  32.1%   6.9  145s
     695431 130413     cutoff   32         6.72360    4.61373  31.4%   6.9  150s
     716268 130784     cutoff   39         6.72360    4.65997  30.7%   6.9  155s
     736951 131060     cutoff   41         6.72360    4.70593  30.0%   6.9  160s
     757227 131134    5.92595   29   14    6.72360    4.74752  29.4%   6.9  165s
     777813 130987     cutoff   42         6.72360    4.79240  28.7%   6.9  170s
    H780248 130973                       6.7236035    4.79808  28.6%   6.9  170s
    H780498 130966                       6.7236035    4.79855  28.6%   6.9  171s
    H780709 130964                       6.7236035    4.79898  28.6%   6.9  171s
    H780813 130957                       6.7236035    4.79913  28.6%   6.9  171s
     795592 130772     cutoff   33         6.72360    4.83130  28.1%   6.9  175s
     815693 130181     cutoff   32         6.72360    4.87652  27.5%   6.9  180s
     835366 129691    5.74471   34   12    6.72360    4.91623  26.9%   6.9  185s
     854626 128728 infeasible   36         6.72360    4.95851  26.3%   6.9  190s
     874176 127689     cutoff   38         6.72360    5.00032  25.6%   6.9  195s
    H889969 126796                       6.7236035    5.03417  25.1%   6.9  199s
     892578 126640    6.66069   37   12    6.72360    5.03971  25.0%   6.9  200s
     911871 125182    5.40445   41   10    6.72360    5.08272  24.4%   7.0  205s
     930891 123365     cutoff   39         6.72360    5.12568  23.8%   7.0  210s
     950301 121509    6.58472   36   10    6.72360    5.16887  23.1%   7.0  215s
     967263 119711     cutoff   38         6.72360    5.20616  22.6%   7.0  220s
     986052 117479     cutoff   37         6.72360    5.24998  21.9%   7.0  225s
     1005093 115279     cutoff   35         6.72360    5.29296  21.3%   7.0  230s
     1023483 112830     cutoff   38         6.72360    5.33412  20.7%   7.0  235s
     1041687 109990    5.82748   37    8    6.72360    5.37679  20.0%   7.0  240s
     1058656 107189     cutoff   33         6.72360    5.41549  19.5%   7.0  245s
     1076181 104046     cutoff   40         6.72360    5.45794  18.8%   7.0  250s
     1093666 100760     cutoff   41         6.72360    5.50234  18.2%   7.0  255s
    H1105287 98404                       6.7236035    5.53170  17.7%   7.0  258s
     1109274 97553     cutoff   32         6.72360    5.54138  17.6%   7.0  260s
     1126593 93658     cutoff   32         6.72360    5.58778  16.9%   7.0  265s
     1143575 89785     cutoff   42         6.72360    5.63407  16.2%   7.0  270s
     1161061 85511 infeasible   38         6.72360    5.68137  15.5%   7.0  275s
     1178530 80915     cutoff   38         6.72360    5.73091  14.8%   7.0  280s
     1195265 75913     cutoff   40         6.72360    5.78209  14.0%   7.0  285s
     1210604 71102     cutoff   27         6.72360    5.83156  13.3%   7.0  290s
     1227112 65589     cutoff   29         6.72360    5.88836  12.4%   7.0  295s
    
    Cutting planes:
      Flow cover: 5
      RLT: 1
      Relax-and-lift: 1
    
    Explored 1243160 nodes (8765881 simplex iterations) in 300.00 seconds (351.32 work units)
    Thread count was 1 (of 96 available processors)
    
    Solution count 9: 6.7236 6.90248 6.93514 ... 10.8711
    
    Time limit reached
    Best objective 6.723603516712e+00, best bound 5.948390498592e+00, gap 11.5297%
    
    User-callback calls 1243315, time in user-callback 0.05 sec

--- Reading solution for model GAMS_MODEL
***
*** Solver did not provide marginals for model GAMS_MODEL
***
--- Executing after solve: elapsed 0:05:00.107
--- model.gms(341) 3 Mb
--- model.gms(562) 5 Mb
--- Putfile results /local/scratch/a/sgusev/repos/k_means/data/gams_gurobi_gdp.bigm/no_mode/2026-02-15_00-59-56/original/results.dat
--- Putfile statresults /local/scratch/a/sgusev/repos/k_means/data/gams_gurobi_gdp.bigm/no_mode/2026-02-15_00-59-56/original/resultsstat.dat
*** Status: Normal completion
--- Job model.gms Stop 02/15/26 01:04:56 elapsed 0:05:00.108
Original problem solved. Time taken: 300.66742753982544 seconds
Original objective value: 6.723603516712261
